U_100_2.txt

VEHICLE     CAPACITY  LOCATIONS  CUSTOMER  OPTIONS  PRIORITIES  NUMTYPS
10		150		121		100		200		3		4

CUSTOMER  DEMAND
0	 14
1	 13
2	 17
3	 10
4	 11
5	 17
6	 13
7	 19
8	 10
9	 11
10	 20
11	 10
12	 17
13	 19
14	 20
15	 17
16	 18
17	 14
18	 10
19	 20
20	 10
21	 20
22	 13
23	 15
24	 12
25	 11
26	 17
27	 17
28	 14
29	 15
30	 18
31	 10
32	 17
33	 15
34	 16
35	 15
36	 14
37	 10
38	 17
39	 15
40	 18
41	 11
42	 13
43	 14
44	 15
45	 18
46	 14
47	 13
48	 19
49	 10
50	 11
51	 10
52	 17
53	 20
54	 19
55	 13
56	 16
57	 12
58	 15
59	 17
60	 13
61	 13
62	 12
63	 16
64	 13
65	 18
66	 17
67	 12
68	 14
69	 11
70	 12
71	 14
72	 16
73	 20
74	 19
75	 10
76	 12
77	 14
78	 16
79	 20
80	 15
81	 15
82	 11
83	 18
84	 12
85	 15
86	 19
87	 11
88	 11
89	 18
90	 18
91	 11
92	 16
93	 15
94	 13
95	 13
96	 16
97	 13
98	 15
99	 15

LOCATION  XCOORD  YCOORD  CAP  READY  DUE  TYP  SERVICETIME
0		2		28		-1		0		720	 0		0
1		38		48		-1		360		720		 2		6
2		29		46		-1		352		592		 2		6
3		18		23		-1		360		720		 2		6
4		4		39		-1		60		300		 2		6
5		34		34		-1		0		360		 2		6
6		50		12		-1		0		360		 2		6
7		39		49		-1		411		531		 2		6
8		35		30		-1		360		720		 2		6
9		16		6		-1		0		360		 2		6
10		34		14		-1		360		720		 2		6
11		4		23		-1		0		360		 2		6
12		42		5		-1		108		348		 2		6
13		45		8		-1		360		720		 2		6
14		20		20		-1		579		699		 2		6
15		4		34		-1		429		669		 2		6
16		10		18		-1		0		360		 2		6
17		19		25		-1		360		720		 2		6
18		25		6		-1		360		720		 2		6
19		7		33		-1		360		720		 2		6
20		12		28		-1		124		364		 2		6
21		28		37		-1		180		300		 2		6
22		11		16		-1		0		360		 2		6
23		25		30		-1		441		561		 2		6
24		43		10		-1		223		343		 2		6
25		11		28		-1		5		125		 2		6
26		39		13		-1		360		720		 2		6
27		27		5		-1		0		360		 2		6
28		18		42		-1		360		720		 2		6
29		34		42		-1		0		360		 2		6
30		46		41		-1		138		258		 2		6
31		12		24		-1		463		703		 2		6
32		49		40		-1		83		203		 2		6
33		37		13		-1		272		512		 2		6
34		24		43		-1		0		360		 2		6
35		34		38		-1		45		285		 2		6
36		49		33		-1		462		702		 2		6
37		9		50		-1		165		405		 2		6
38		26		31		-1		86		326		 2		6
39		25		24		-1		453		693		 2		6
40		33		5		-1		0		360		 2		6
41		38		6		-1		360		720		 2		6
42		32		23		-1		154		274		 2		6
43		22		44		-1		0		360		 2		6
44		35		49		-1		183		423		 2		6
45		11		12		-1		0		360		 2		6
46		37		50		-1		5		125		 2		6
47		17		36		-1		291		531		 2		6
48		31		38		-1		0		360		 2		6
49		7		18		-1		0		360		 2		6
50		43		40		-1		360		720		 2		6
51		10		7		-1		63		183		 2		6
52		37		37		-1		422		542		 2		6
53		44		17		-1		360		720		 2		6
54		14		6		-1		0		360		 2		6
55		45		43		-1		141		261		 2		6
56		26		38		-1		215		335		 2		6
57		16		3		-1		360		720		 2		6
58		17		6		-1		0		360		 2		6
59		36		8		-1		360		720		 2		6
60		22		6		-1		572		692		 2		6
61		47		7		-1		202		322		 2		6
62		7		45		-1		360		720		 2		6
63		41		49		-1		531		651		 2		6
64		16		36		-1		383		623		 2		6
65		12		42		-1		154		274		 2		6
66		47		38		-1		95		215		 2		6
67		20		40		-1		360		720		 2		6
68		35		21		-1		466		586		 2		6
69		4		23		-1		123		243		 2		6
70		9		28		-1		360		720		 2		6
71		34		36		-1		360		720		 2		6
72		13		38		-1		386		506		 2		6
73		35		16		-1		599		719		 2		6
74		46		28		-1		6		246		 2		6
75		19		9		-1		229		469		 2		6
76		1		29		-1		498		618		 2		6
77		24		39		-1		110		230		 2		6
78		27		48		-1		503		623		 2		6
79		12		25		-1		360		720		 2		6
80		42		12		-1		26		146		 2		6
81		38		32		-1		0		360		 2		6
82		29		16		-1		360		720		 2		6
83		6		38		-1		235		355		 2		6
84		15		18		-1		595		715		 2		6
85		11		46		-1		208		448		 2		6
86		12		50		-1		360		720		 2		6
87		27		29		-1		449		689		 2		6
88		34		25		-1		360		720		 2		6
89		30		48		-1		422		542		 2		6
90		11		11		-1		360		720		 2		6
91		7		17		-1		467		587		 2		6
92		33		32		-1		0		360		 2		6
93		44		24		-1		102		222		 2		6
94		3		30		-1		0		360		 2		6
95		41		2		-1		0		360		 2		6
96		32		7		-1		0		360		 2		6
97		25		22		-1		9		129		 2		6
98		10		14		-1		360		720		 2		6
99		16		26		-1		0		360		 2		6
100		49		25		-1		209		329		 2		6
101		37		40		5		102		582		 1		4
102		44		6		5		144		624		 1		4
103		23		15		5		97		577		 1		4
104		33		13		5		0		720		 1		4
105		27		30		4		0		720		 1		4
106		37		21		5		122		602		 1		4
107		8		26		5		0		720		 1		4
108		27		27		5		104		584		 1		4
109		13		27		5		115		595		 1		4
110		28		10		5		0		720		 1		4
111		43		36		5		0		720		 1		4
112		16		15		5		209		689		 1		4
113		21		6		5		95		575		 1		4
114		42		27		5		0		720		 1		4
115		28		22		5		225		705		 1		4
116		37		28		4		0		720		 1		4
117		27		12		3		0		720		 1		4
118		6		38		5		0		720		 1		4
119		5		14		5		207		687		 1		4
120		37		15		5		162		642		 1		4
OPTION  LOCATION  CUSTOMER  PRIO  SERVICETIME   COST
0		120		0		0		2		0
1		114		1		0		2		0
2		117		2		0		2		0
3		106		3		0		2		0
4		104		4		0		2		0
5		116		5		0		2		0
6		117		6		0		2		0
7		110		7		0		2		0
8		112		8		0		2		0
9		115		9		0		2		0
10		110		10		0		2		0
11		114		11		0		2		0
12		113		12		0		2		0
13		107		13		0		2		0
14		118		14		0		2		0
15		104		15		0		2		0
16		119		16		0		2		0
17		107		17		0		2		0
18		104		18		0		2		0
19		113		19		0		2		0
20		1		20		0		5		0
21		2		21		0		5		0
22		3		22		0		5		0
23		4		23		0		5		0
24		5		24		0		5		0
25		6		25		0		5		0
26		7		26		0		5		0
27		8		27		0		5		0
28		9		28		0		5		0
29		10		29		0		5		0
30		11		30		0		5		0
31		12		31		0		5		0
32		13		32		0		5		0
33		14		33		0		5		0
34		15		34		0		5		0
35		16		35		0		5		0
36		17		36		0		5		0
37		18		37		0		5		0
38		19		38		0		5		0
39		20		39		0		5		0
40		21		40		0		5		0
41		115		40		1		2		0
42		22		41		1		5		0
43		103		41		0		2		0
44		23		42		1		5		0
45		108		42		0		2		0
46		24		43		1		5		0
47		120		43		0		2		0
48		25		44		1		5		0
49		112		44		0		2		0
50		26		45		0		5		0
51		111		45		1		2		0
52		27		46		0		5		0
53		104		46		1		2		0
54		28		47		0		5		0
55		107		47		1		2		0
56		29		48		1		5		0
57		111		48		0		2		0
58		30		49		0		5		0
59		116		49		1		2		0
60		31		50		1		5		0
61		105		50		0		2		0
62		32		51		0		5		0
63		106		51		1		2		0
64		33		52		0		5		0
65		115		52		1		2		0
66		34		53		0		5		0
67		105		53		1		2		0
68		35		54		1		5		0
69		102		54		0		2		0
70		36		55		1		5		0
71		119		55		0		2		0
72		37		56		0		5		0
73		105		56		1		2		0
74		38		57		1		5		0
75		109		57		0		2		0
76		39		58		1		5		0
77		117		58		0		2		0
78		40		59		1		5		0
79		117		59		0		2		0
80		41		60		1		5		0
81		102		60		0		2		0
82		107		60		2		2		0
83		42		61		1		5		0
84		108		61		2		2		0
85		102		61		0		2		0
86		43		62		0		5		0
87		108		62		1		2		0
88		112		62		2		2		0
89		44		63		1		5		0
90		116		63		2		2		0
91		111		63		0		2		0
92		45		64		0		5		0
93		119		64		1		2		0
94		116		64		2		2		0
95		46		65		2		5		0
96		105		65		0		2		0
97		111		65		1		2		0
98		47		66		1		5		0
99		105		66		2		2		0
100		108		66		0		2		0
101		48		67		2		5		0
102		111		67		1		2		0
103		116		67		0		2		0
104		49		68		2		5		0
105		103		68		0		2		0
106		104		68		1		2		0
107		50		69		1		5		0
108		109		69		2		2		0
109		101		69		0		2		0
110		51		70		1		5		0
111		113		70		0		2		0
112		106		70		2		2		0
113		52		71		1		5		0
114		104		71		2		2		0
115		113		71		0		2		0
116		53		72		1		5		0
117		104		72		0		2		0
118		109		72		2		2		0
119		54		73		0		5		0
120		104		73		2		2		0
121		120		73		1		2		0
122		55		74		1		5		0
123		116		74		0		2		0
124		114		74		2		2		0
125		56		75		0		5		0
126		115		75		1		2		0
127		113		75		2		2		0
128		57		76		0		5		0
129		109		76		2		2		0
130		110		76		1		2		0
131		58		77		0		5		0
132		106		77		1		2		0
133		118		77		2		2		0
134		59		78		1		5		0
135		110		78		0		2		0
136		117		78		2		2		0
137		60		79		0		5		0
138		103		79		1		2		0
139		115		79		2		2		0
140		61		80		1		5		0
141		62		80		2		5		0
142		106		80		0		2		0
143		63		81		0		5		0
144		64		81		1		5		0
145		101		81		2		2		0
146		65		82		1		5		0
147		66		82		2		5		0
148		113		82		0		2		0
149		67		83		0		5		0
150		68		83		1		5		0
151		120		83		2		2		0
152		69		84		1		5		0
153		70		84		0		5		0
154		109		84		2		2		0
155		71		85		0		5		0
156		72		85		2		5		0
157		101		85		1		2		0
158		73		86		2		5		0
159		74		86		0		5		0
160		104		86		1		2		0
161		75		87		2		5		0
162		76		87		0		5		0
163		110		87		1		2		0
164		77		88		0		5		0
165		78		88		2		5		0
166		110		88		1		2		0
167		79		89		0		5		0
168		80		89		1		5		0
169		104		89		2		2		0
170		81		90		0		5		0
171		82		90		2		5		0
172		103		90		1		2		0
173		83		91		2		5		0
174		84		91		0		5		0
175		109		91		1		2		0
176		85		92		0		5		0
177		86		92		2		5		0
178		107		92		1		2		0
179		87		93		0		5		0
180		88		93		2		5		0
181		106		93		1		2		0
182		89		94		2		5		0
183		90		94		0		5		0
184		103		94		1		2		0
185		91		95		2		5		0
186		92		95		0		5		0
187		101		95		1		2		0
188		93		96		2		5		0
189		94		96		0		5		0
190		106		96		1		2		0
191		95		97		1		5		0
192		96		97		0		5		0
193		120		97		2		2		0
194		97		98		2		5		0
195		98		98		0		5		0
196		108		98		1		2		0
197		99		99		1		5		0
198		100		99		2		5		0
199		119		99		0		2		0
